
Gurobi 7.0.1 (linux64) logging started Sun Jul  2 21:45:45 2017

Optimize a model with 21691 rows, 14464 columns and 65448 nonzeros
Variable types: 0 continuous, 14464 integer (14464 binary)
Coefficient statistics:
  Matrix range     [1e+00, 9e+00]
  Objective range  [1e+00, 1e+00]
  Bounds range     [1e+00, 1e+00]
  RHS range        [1e+00, 5e+01]
Presolve removed 20815 rows and 13584 columns
Presolve time: 0.05s
Presolved: 876 rows, 880 columns, 6069 nonzeros
Variable types: 0 continuous, 880 integer (880 binary)

Root relaxation: objective 4.973333e+01, 155 iterations, 0.00 seconds

    Nodes    |    Current Node    |     Objective Bounds      |     Work
 Expl Unexpl |  Obj  Depth IntInf | Incumbent    BestBd   Gap | It/Node Time

     0     0   49.73333    0   45          -   49.73333      -     -    0s
H    0     0                      42.0000000   49.73333  18.4%     -    0s
H    0     0                      49.0000000   49.73333  1.50%     -    0s

Cutting planes:
  Lazy constraints: 6

Explored 0 nodes (156 simplex iterations) in 0.15 seconds
Thread count was 12 (of 12 available processors)

Solution count 2: 49 42 
Pool objective bound 49

Optimal solution found (tolerance 1.00e-04)
Best objective 4.900000000000e+01, best bound 4.900000000000e+01, gap 0.0000%
Optimize a model with 21691 rows, 14464 columns and 65448 nonzeros
Variable types: 0 continuous, 14464 integer (14464 binary)
Coefficient statistics:
  Matrix range     [1e+00, 9e+00]
  Objective range  [2e-02, 1e+00]
  Bounds range     [1e+00, 1e+00]
  RHS range        [1e+00, 5e+01]
Presolve removed 20815 rows and 13584 columns
Presolve time: 0.04s
Presolved: 876 rows, 880 columns, 6069 nonzeros

Loaded MIP start with objective 8.88178e-16

Variable types: 0 continuous, 880 integer (880 binary)

Root relaxation: objective 8.400000e-01, 153 iterations, 0.00 seconds

    Nodes    |    Current Node    |     Objective Bounds      |     Work
 Expl Unexpl |  Obj  Depth IntInf | Incumbent    BestBd   Gap | It/Node Time

*    0     0               0       0.8400000    0.84000  0.00%     -    0s

Explored 0 nodes (153 simplex iterations) in 0.08 seconds
Thread count was 12 (of 12 available processors)

Solution count 2: 0.84 8.88178e-16 
Pool objective bound 0.84

Optimal solution found (tolerance 1.00e-04)
Best objective 8.400000000000e-01, best bound 8.400000000000e-01, gap 0.0000%
Optimize a model with 21691 rows, 14464 columns and 65448 nonzeros
Variable types: 0 continuous, 14464 integer (14464 binary)
Coefficient statistics:
  Matrix range     [1e+00, 9e+00]
  Objective range  [1e+00, 1e+00]
  Bounds range     [1e+00, 1e+00]
  RHS range        [1e+00, 5e+01]
Presolve removed 20815 rows and 13584 columns
Presolve time: 0.03s
Presolved: 876 rows, 880 columns, 6069 nonzeros

Loaded MIP start with objective -0

Variable types: 0 continuous, 880 integer (880 binary)

Explored 0 nodes (0 simplex iterations) in 0.06 seconds
Thread count was 12 (of 12 available processors)

Solution count 1: -0 
Pool objective bound -0

Optimal solution found (tolerance 1.00e-04)
Best objective -0.000000000000e+00, best bound -0.000000000000e+00, gap -
